188 56 160 174 51 79 13 173 157 38 128 66 60 25 63 120 100 34 76 72 170 44 199 31 106 140 103 93 182 129 12 133 98 113 108 14 49 171 78 43 191 198 4 197 73 102 181 69 37 45 143 184 101 5 152 189 121 107 1 57 20 24 149 168 58 26 87 8 111 95 147 15 151 47 48 178 153 53 91 54 132 110 17 59 39 163 185 158 67 0 192 186 179 138 116 167 3 68 130 117 112 122 46 7 194 35 52 28 6 21 175 77 9 70 82 155 19 137 161 29 61 80 187 195 164 55 180 162 125 83 154 159 183 84 16 139 71 177 85 193 62 30 81 11 94 23 50 123 150 141 190 146 41 169 136 119 40 33 114 156 165 142 88 148 109 166 104 92 18 196 89 65 115 32 74 118 42 10 2 22 64 176 36 172 145 96 134 131 75 90 27 97 127 144 126 105 86 135 99 124 

